# Solution for model r10_t18_m3_3 Batch Number: 1
# Finished Task: 18 / 18
# Makespan: 468.0, Total Distance: 153.0, Total Time: 17.6594
# R O S F Batch
0 0 13 0.0 0.0 -1
1 1 -1 0.0 0.0 -1
2 2 27 0.0 0.0 -1
3 3 20 0.0 0.0 -1
4 4 10 0.0 0.0 -1
5 5 -1 0.0 0.0 -1
6 6 11 0.0 0.0 -1
7 7 -1 0.0 0.0 -1
8 8 26 0.0 0.0 -1
9 9 25 0.0 0.0 -1
10 4 -1 438.0 468.0 0
11 6 23 73.0 97.0 0
12 9 16 361.0 398.0 0
13 0 -1 137.0 176.0 0
14 8 18 347.0 380.0 0
15 3 21 331.0 361.0 0
16 9 -1 432.0 468.0 0
17 2 -1 429.0 468.0 0
18 8 -1 390.0 423.0 0
19 9 12 159.0 190.0 0
20 3 15 295.0 323.0 0
21 3 -1 439.0 468.0 0
22 2 17 395.0 429.0 0
23 6 24 368.0 398.0 0
24 6 -1 429.0 468.0 0
25 9 19 106.0 144.0 0
26 8 14 324.0 347.0 0
27 2 22 330.0 361.0 0
